examples/hie_sine/txt/my_machine_rounding_le.txt
Bounds on variables: 
x (Real) in [0, 511]

exact NVC: 

		NOT
			(x + (-1 * (rndToInt_ta x))) <= (500000001 * (1 / 1000000000))